num_features = 73;
num_usage_limits = 3;
num_plans = 4;
num_addons = 0;

features = ["versionHistory","figmaEditor","advancedDrawingTools","autoLayout","pluginsAndWidgets","fileStorage","crossPlatform","sketchImport","pdfPngJpgSvgExport","multiplayer","shareableLinks","onCanvasCommenting","observationMode","privateProjects","prototypeSharingPermissions","audioConversations","teamAndProjectTransfer","teams","branchingAndMerging","customWorkspaces","interactivePrototypes","videosInPrototypes","overlays","transitions","advancedAnimations","setVariable","conditionalLogic","multipleActions","expressions","variables","components","styles","modes","teamLibraries","organizationWideDesignSystems","sharedFonts","designSystemAnalytics","defaultLibrariesByWorkspace","restApiForVariables","devMode","figmaForVsCode","restApis","thirdPartyIntegrations","liveEmbeds","webhooks","privatePluginsAndWidgets","passwordProtection","pluginAndWidgetApproval","centralizedAdministration","domainCapture","linkAccessControls","centralizedContentAdministration","singleSignOn","activityLogs","workspaceAdministration","guestAccessControls","defaultRoles","defaultTeams","roleAssigmentViaSCIM","passwordProtectionRequired","teamCreationControls","networkAccessRestrictions","externalContentsControls","activityLogsApi","windowsInstaller","idleSessionTimeout","euDataHosting","expiringPublicLinks","puglinAndWidgetsAnalytics","figmaSupportForum","figmaHelpCenter","onboardingPlanningAndSupport","dedicatedAccountManager"];
usage_limits = ["versionHistoryDepth","teamsLimit","modesLimits"];
plans = ["STARTER","FIGMA_PROFESSIONAL","FIGMA_ORGANIZATION","ENTERPRISE"];
addons = [];

plans_prices = [0,15,45,75];
addons_prices = [];

linked_features = array2d(USAGE_LIMITS, FEATURES, [
    % versionHistoryDepth
    1,0,0,0,0,0,0,0,0,0,0,0,0,0,0,0,0,0,0,0,0,0,0,0,0,0,0,0,0,0,0,0,0,0,0,0,0,0,0,0,0,0,0,0,0,0,0,0,0,0,0,0,0,0,0,0,0,0,0,0,0,0,0,0,0,0,0,0,0,0,0,0,0,
    % teamsLimit
    0,0,0,0,0,0,0,0,0,0,0,0,0,0,0,0,0,1,0,0,0,0,0,0,0,0,0,0,0,0,0,0,0,0,0,0,0,0,0,0,0,0,0,0,0,0,0,0,0,0,0,0,0,0,0,0,0,0,0,0,0,0,0,0,0,0,0,0,0,0,0,0,0,
    % modesLimits
    0,0,0,0,0,0,0,0,0,0,0,0,0,0,0,0,0,0,0,0,0,0,0,0,0,0,0,0,0,0,0,0,1,0,0,0,0,0,0,0,0,0,0,0,0,0,0,0,0,0,0,0,0,0,0,0,0,0,0,0,0,0,0,0,0,0,0,0,0,0,0,0,0
]);

plans_features = array2d(PLANS, FEATURES, [
    % STARTER
    1,1,1,1,1,1,1,1,1,1,1,1,1,0,0,0,0,1,0,0,1,1,1,1,1,0,0,0,0,1,1,1,0,0,0,0,0,0,0,0,0,1,1,1,0,0,0,0,0,0,0,0,1,0,0,0,0,0,1,0,0,0,0,0,0,0,0,0,0,1,1,0,0,
    % FIGMA_PROFESSIONAL
    1,1,1,1,1,1,1,1,1,1,1,1,1,1,1,1,1,1,0,0,1,1,1,1,1,1,1,1,1,1,1,1,1,1,0,0,0,0,0,1,1,1,1,1,1,0,1,0,0,0,0,0,1,0,0,0,0,0,1,0,0,0,0,0,0,0,0,0,0,1,1,0,0,
    % FIGMA_ORGANIZATION
    1,1,1,1,1,1,1,1,1,1,1,1,1,1,1,1,1,1,1,0,1,1,1,1,1,1,1,1,1,1,1,1,1,1,1,1,1,0,0,1,1,1,1,1,1,1,1,1,1,1,1,1,1,1,0,0,0,0,1,0,0,0,0,0,0,0,0,0,0,1,1,0,0,
    % ENTERPRISE
    1,1,1,1,1,1,1,1,1,1,1,1,1,1,1,1,1,1,1,1,1,1,1,1,1,1,1,1,1,1,1,1,1,1,1,1,1,1,1,1,1,1,1,1,1,1,1,1,1,1,1,1,1,1,1,1,1,1,1,1,1,1,1,1,1,1,1,1,1,1,1,1,0
]);
plans_usage_limits = array2d(PLANS, USAGE_LIMITS, [
    % STARTER
    30,100,0,
    % FIGMA_PROFESSIONAL
    100000000,100,4,
    % FIGMA_ORGANIZATION
    100000000,100000000,4,
    % ENTERPRISE
    100000000,100000000,40
]);

addons_features = array2d(ADDONS, FEATURES, [
]);
addons_usage_limits = array2d(ADDONS, USAGE_LIMITS, [
]);
addons_usage_limits_extensions = array2d(ADDONS, USAGE_LIMITS, [
]);
addons_available_for = array2d(ADDONS, PLANS, [
]);
addons_depends_on = array2d(ADDONS, ADDONS, [
]);
